
Gurobi 9.1.2 (win64, Java) logging started Sat Nov  6 06:59:18 2021

Academic license - for non-commercial use only - expires 2022-10-30
Gurobi Optimizer version 9.1.2 build v9.1.2rc0 (win64)
Thread count: 6 physical cores, 12 logical processors, using up to 12 threads
Optimize a model with 60 rows, 800 columns and 1600 nonzeros
Model fingerprint: 0x2aa9b70a
Variable types: 0 continuous, 800 integer (800 binary)
Coefficient statistics:
  Matrix range     [1e+00, 1e+03]
  Objective range  [4e+01, 9e+02]
  Bounds range     [1e+00, 1e+00]
  RHS range        [1e+00, 9e+02]
Found heuristic solution: objective 9367.0000000
Presolve removed 3 rows and 408 columns
Presolve time: 0.02s
Presolved: 57 rows, 392 columns, 784 nonzeros
Variable types: 0 continuous, 392 integer (392 binary)
Presolved: 57 rows, 392 columns, 784 nonzeros


Root relaxation: objective 1.174925e+04, 173 iterations, 0.00 seconds

    Nodes    |    Current Node    |     Objective Bounds      |     Work
 Expl Unexpl |  Obj  Depth IntInf | Incumbent    BestBd   Gap | It/Node Time

     0     0 11749.2466    0   25 9367.00000 11749.2466  25.4%     -    0s
H    0     0                    10492.000000 11749.2466  12.0%     -    0s
H    0     0                    10612.000000 11749.2466  10.7%     -    0s
     0     0 11566.6511    0   43 10612.0000 11566.6511  9.00%     -    0s
H    0     0                    10915.000000 11566.6511  5.97%     -    0s
H    0     0                    10963.000000 11566.6511  5.51%     -    0s
     0     0 11565.7728    0   43 10963.0000 11565.7728  5.50%     -    0s
H    0     0                    11065.000000 11565.7728  4.53%     -    1s
H    0     0                    11193.000000 11565.7728  3.33%     -    1s
H    0     0                    11233.000000 11565.7728  2.96%     -    1s
     0     0 11492.3758    0   49 11233.0000 11492.3758  2.31%     -    1s
     0     0 11487.7100    0   47 11233.0000 11487.7100  2.27%     -    1s
     0     0 11487.5372    0   45 11233.0000 11487.5372  2.27%     -    1s
     0     0 11410.3122    0   35 11233.0000 11410.3122  1.58%     -    1s
H    0     0                    11246.000000 11410.3122  1.46%     -    1s
     0     0 11406.9074    0   40 11246.0000 11406.9074  1.43%     -    1s
     0     0 11368.7117    0   35 11246.0000 11368.7117  1.09%     -    1s
     0     0 11367.4567    0   47 11246.0000 11367.4567  1.08%     -    2s
     0     0 11367.3773    0   48 11246.0000 11367.3773  1.08%     -    2s
     0     0 11348.9561    0   30 11246.0000 11348.9561  0.92%     -    2s
H    0     0                    11347.000000 11348.9561  0.02%     -    2s

Cutting planes:
  Gomory: 1
  Cover: 25
  Clique: 5
  MIR: 24
  StrongCG: 22

Explored 1 nodes (838 simplex iterations) in 2.15 seconds
Thread count was 12 (of 12 available processors)

Solution count 10: 11347 11246 11233 ... 9367

Optimal solution found (tolerance 1.00e-04)
Best objective 1.134700000000e+04, best bound 1.134800000000e+04, gap 0.0088%
